
Gurobi 6.5.2 (win64) logging started 07/24/16 17:39:19


Gurobi 6.5.2 (win64) logging started 07/24/16 17:39:19

Optimize a model with 2983 rows, 763 columns and 7722 nonzeros
Coefficient statistics:
  Matrix range    [6e-08, 1e+03]
  Objective range [1e+00, 1e+00]
  Bounds range    [1e+00, 1e+00]
  RHS range       [6e-06, 2e+03]
Presolve removed 2736 rows and 507 columns
Presolve time: 0.00s
Presolved: 247 rows, 256 columns, 1061 nonzeros
Variable types: 256 continuous, 0 integer (0 binary)

Root relaxation: objective 1.979341e+01, 289 iterations, 0.00 seconds

    Nodes    |    Current Node    |     Objective Bounds      |     Work
 Expl Unexpl |  Obj  Depth IntInf | Incumbent    BestBd   Gap | It/Node Time

*    0     0               0      19.7934101   19.79341  0.00%     -    0s

Explored 0 nodes (289 simplex iterations) in 0.00 seconds
Thread count was 8 (of 8 available processors)

Optimal solution found (tolerance 1.00e-04)
Best objective 1.979341011512e+01, best bound 1.979341011512e+01, gap 0.0%

Wrote requested result file 'H1\instance22\\Results22EC_Sol4.lp'

